27	3

10	10	10	

0	0	0	0	3	2	3	4	
2	3	5	2	3	5	6	8	
4	5	4	3	2	5	6	
2	5	2	2	2	6	7	
6	4	1	4	2	10	11	
1	5	5	4	2	9	10	
1	3	5	2	2	9	10	
3	2	4	4	3	10	11	12	
2	3	2	2	2	14	16	
6	3	2	4	1	15	
6	3	3	2	1	14	
5	4	1	4	1	13	
6	1	4	4	2	19	20	
3	2	2	2	1	17	
4	5	5	4	1	18	
3	1	5	4	1	17	
2	4	5	4	1	24	
3	3	2	3	1	21	
1	5	3	3	1	21	
2	2	4	6	3	21	22	23	
3	1	6	2	1	26	
2	3	2	1	1	25	
3	1	0	4	1	25	
2	2	2	1	1	25	
5	0	1	3	1	27	
3	2	2	2	1	27	
0	0	0	0	0	
